 $CONTRL SCFTYP=RHF RUNTYP=ENERGY MPLEVL=2 MAXIT=100 $END
 $SYSTEM MWORDS=400 $END
 $BASIS  GBASIS=N31 NGAUSS=6 $END
 $GUESS  GUESS=HUCKEL $END
 $SCF    DIRSCF=.T. $END
 $MP2    CODE=IMS $END
 $DANDC  DCFLG=.F. SUBTYP=AUTBND SUBLNG=1.0 BUFTYP=RADSUB $END
 $DCCORR DODCCR=.T. RBUFCR=4.0 $END
 $DATA
Water 100 molecules
C1
O  8.0  -4.309000 -0.537000 4.854000
H  1.0  -3.871000 0.162000  4.287000
H  1.0  -3.824000 -0.626000 5.723000
O  8.0  5.560000  3.631000  1.050000
H  1.0  5.702000  4.090000  1.928000
H  1.0  5.721000  2.650000  1.147000
O  8.0  3.604000  4.051000  -0.135000
H  1.0  3.112000  4.195000  0.725000
H  1.0  3.841000  3.086000  -0.236000
O  8.0  0.680000  5.705000  5.712000
H  1.0  1.295000  4.921000  5.615000
H  1.0  0.007000  5.705000  4.973000
O  8.0  0.646000  -2.655000 0.788000
H  1.0  0.492000  -1.714000 1.093000
H  1.0  0.629000  -3.275000 1.571000
O  8.0  1.769000  2.244000  -0.153000
H  1.0  2.336000  1.606000  0.371000
H  1.0  1.304000  2.875000  0.466000
O  8.0  -4.983000 2.184000  -4.412000
H  1.0  -4.502000 1.431000  -4.863000
H  1.0  -5.708000 1.825000  -3.826000
O  8.0  -1.615000 1.627000  4.699000
H  1.0  -1.928000 1.643000  5.650000
H  1.0  -2.264000 2.117000  4.118000
O  8.0  1.740000  5.426000  -0.795000
H  1.0  1.635000  4.458000  -1.025000
H  1.0  1.027000  5.704000  -0.152000
O  8.0  0.261000  4.325000  -4.829000
H  1.0  -0.514000 3.693000  -4.887000
H  1.0  0.389000  4.789000  -5.704000
O  8.0  -0.476000 -5.644000 -3.169000
H  1.0  -0.465000 -5.718000 -2.170000
H  1.0  0.176000  -4.949000 -3.467000
O  8.0  -1.978000 0.517000  2.644000
H  1.0  -2.505000 1.199000  2.136000
H  1.0  -1.099000 0.361000  2.195000
O  8.0  0.482000  -5.727000 -0.187000
H  1.0  1.467000  -5.571000 -0.101000
H  1.0  -0.002000 -5.268000 0.557000
O  8.0  -0.642000 4.485000  -0.903000
H  1.0  -0.747000 3.672000  -0.328000
H  1.0  -1.102000 5.265000  -0.480000
O  8.0  3.651000  1.284000  -2.838000
H  1.0  3.904000  1.549000  -1.906000
H  1.0  4.433000  0.864000  -3.298000
O  8.0  -2.972000 5.174000  5.042000
H  1.0  -2.177000 5.701000  4.737000
H  1.0  -3.499000 5.704000  5.706000
O  8.0  1.769000  -5.078000 3.040000
H  1.0  2.490000  -5.706000 3.336000
H  1.0  1.601000  -5.187000 2.061000
O  8.0  2.875000  3.378000  5.725000
H  1.0  2.978000  2.468000  5.321000
H  1.0  3.751000  3.859000  5.711000
O  8.0  5.189000  -3.832000 3.036000
H  1.0  4.890000  -3.001000 2.564000
H  1.0  4.410000  -4.270000 3.482000
O  8.0  0.140000  -4.780000 -5.737000
H  1.0  0.396000  -5.721000 -5.512000
H  1.0  -0.785000 -4.591000 -5.410000
O  8.0  -5.253000 1.333000  -0.772000
H  1.0  -5.700000 1.489000  -1.654000
H  1.0  -5.706000 1.868000  -0.060000
O  8.0  -5.731000 0.415000  3.144000
H  1.0  -5.707000 0.722000  2.191000
H  1.0  -5.732000 -0.584000 3.181000
O  8.0  1.477000  -1.675000 -0.996000
H  1.0  0.617000  -1.226000 -1.245000
H  1.0  1.956000  -1.976000 -1.819000
O  8.0  0.880000  -1.740000 3.538000
H  1.0  1.827000  -1.439000 3.665000
H  1.0  0.323000  -0.982000 3.202000
O  8.0  -3.761000 5.705000  1.173000
H  1.0  -4.706000 5.712000  1.502000
H  1.0  -3.731000 5.388000  0.226000
O  8.0  -0.748000 -4.891000 3.782000
H  1.0  -0.318000 -5.704000 4.176000
H  1.0  -0.396000 -4.730000 2.861000
O  8.0  -1.114000 5.335000  -3.098000
H  1.0  -0.289000 5.724000  -2.685000
H  1.0  -1.243000 5.706000  -4.017000
O  8.0  4.042000  0.217000  0.362000
H  1.0  4.818000  0.844000  0.280000
H  1.0  3.945000  -0.318000 -0.476000
O  8.0  -5.079000 -3.143000 -4.096000
H  1.0  -4.955000 -2.159000 -3.955000
H  1.0  -4.341000 -3.647000 -3.648000
O  8.0  4.352000  0.105000  3.867000
H  1.0  3.742000  0.899000  3.852000
H  1.0  5.089000  0.253000  4.526000
O  8.0  5.595000  4.723000  -5.725000
H  1.0  5.725000  5.716000  -5.714000
H  1.0  4.620000  4.505000  -5.705000
O  8.0  -0.106000 2.959000  -2.409000
H  1.0  0.507000  3.678000  -2.741000
H  1.0  -0.349000 2.344000  -3.158000
O  8.0  -3.248000 -3.632000 4.976000
H  1.0  -3.143000 -4.309000 5.706000
H  1.0  -2.639000 -3.853000 4.215000
O  8.0  -5.510000 4.299000  -0.770000
H  1.0  -5.711000 4.244000  0.209000
H  1.0  -5.507000 5.254000  -1.064000
O  8.0  -4.653000 4.208000  3.104000
H  1.0  -5.206000 4.829000  3.661000
H  1.0  -3.707000 4.528000  3.072000
O  8.0  1.855000  5.387000  -3.041000
H  1.0  2.778000  5.607000  -2.722000
H  1.0  1.727000  5.723000  -3.973000
O  8.0  -2.905000 3.954000  -4.060000
H  1.0  -2.328000 3.196000  -3.753000
H  1.0  -2.645000 4.228000  -4.985000
O  8.0  2.752000  3.411000  -2.716000
H  1.0  2.424000  2.964000  -3.549000
H  1.0  3.722000  3.635000  -2.808000
O  8.0  -1.448000 -0.540000 -0.349000
H  1.0  -1.991000 0.212000  0.027000
H  1.0  -1.852000 -0.858000 -1.206000
O  8.0  -1.085000 -0.503000 -3.235000
H  1.0  -0.646000 0.217000  -2.695000
H  1.0  -0.697000 -1.393000 -2.998000
O  8.0  0.492000  -0.147000 5.227000
H  1.0  0.846000  -1.002000 5.607000
H  1.0  -0.380000 0.083000  5.658000
O  8.0  5.316000  4.940000  -3.556000
H  1.0  4.713000  5.711000  -3.763000
H  1.0  5.675000  5.026000  -2.627000
O  8.0  2.606000  -0.944000 1.671000
H  1.0  2.657000  -1.511000 0.847000
H  1.0  3.487000  -0.946000 2.142000
O  8.0  -5.216000 -5.736000 1.002000
H  1.0  -4.878000 -5.782000 0.061000
H  1.0  -5.740000 -4.896000 1.136000
O  8.0  5.627000  -4.341000 -3.832000
H  1.0  5.705000  -3.777000 -3.009000
H  1.0  5.388000  -5.279000 -3.583000
O  8.0  -2.767000 -5.090000 2.402000
H  1.0  -3.724000 -4.828000 2.530000
H  1.0  -2.682000 -5.700000 1.615000
O  8.0  -0.037000 1.135000  0.432000
H  1.0  0.549000  0.335000  0.295000
H  1.0  -0.294000 1.525000  -0.451000
O  8.0  -3.863000 -0.656000 -5.133000
H  1.0  -3.041000 -0.633000 -5.704000
H  1.0  -4.679000 -0.593000 -5.706000
O  8.0  4.874000  -5.273000 1.403000
H  1.0  5.705000  -5.612000 1.847000
H  1.0  4.070000  -5.707000 1.807000
O  8.0  -3.724000 -1.789000 -0.535000
H  1.0  -4.033000 -0.938000 -0.962000
H  1.0  -4.510000 -2.317000 -0.216000
O  8.0  -1.928000 -2.325000 2.794000
H  1.0  -1.084000 -2.671000 3.208000
H  1.0  -1.711000 -1.742000 2.013000
O  8.0  1.642000  1.785000  3.430000
H  1.0  1.567000  0.796000  3.564000
H  1.0  1.647000  1.998000  2.453000
O  8.0  2.055000  -5.702000 5.705000
H  1.0  2.995000  -5.458000 5.462000
H  1.0  1.421000  -5.024000 5.336000
O  8.0  3.057000  5.550000  3.282000
H  1.0  3.698000  5.097000  2.661000
H  1.0  2.829000  4.941000  4.041000
O  8.0  -4.455000 2.274000  4.195000
H  1.0  -4.278000 2.049000  3.236000
H  1.0  -5.412000 2.537000  4.313000
O  8.0  -3.073000 4.649000  -1.981000
H  1.0  -2.847000 5.601000  -1.774000
H  1.0  -2.779000 4.057000  -1.232000
O  8.0  4.383000  -3.331000 -0.743000
H  1.0  5.007000  -3.422000 0.035000
H  1.0  4.386000  -2.388000 -1.074000
O  8.0  -1.048000 5.139000  2.089000
H  1.0  -1.117000 4.807000  3.032000
H  1.0  -1.803000 4.777000  1.544000
O  8.0  -5.449000 -5.259000 4.692000
H  1.0  -4.627000 -5.704000 4.333000
H  1.0  -5.706000 -5.670000 5.566000
O  8.0  -2.329000 1.509000  -5.163000
H  1.0  -1.969000 2.265000  -5.711000
H  1.0  -1.576000 0.961000  -4.801000
O  8.0  -1.298000 -3.518000 0.251000
H  1.0  -1.478000 -3.772000 1.203000
H  1.0  -1.791000 -2.679000 0.024000
O  8.0  5.639000  5.732000  0.427000
H  1.0  4.718000  5.707000  0.819000
H  1.0  5.652000  5.241000  -0.444000
O  8.0  5.602000  -0.755000 1.569000
H  1.0  5.709000  -1.585000 1.019000
H  1.0  5.727000  -0.968000 2.537000
O  8.0  1.138000  -3.032000 -4.852000
H  1.0  1.705000  -3.798000 -4.546000
H  1.0  0.402000  -2.867000 -4.196000
O  8.0  3.380000  -0.278000 5.800000
H  1.0  3.255000  -1.141000 5.310000
H  1.0  2.598000  0.323000  5.638000
O  8.0  -4.197000 -0.527000 1.193000
H  1.0  -4.043000 0.379000  0.797000
H  1.0  -3.815000 -0.566000 2.116000
O  8.0  5.687000  2.660000  3.901000
H  1.0  5.646000  1.930000  3.217000
H  1.0  5.076000  2.449000  4.663000
O  8.0  3.899000  2.932000  2.339000
H  1.0  3.791000  2.010000  1.966000
H  1.0  3.472000  2.988000  3.241000
O  8.0  2.761000  -3.284000 5.232000
H  1.0  1.977000  -2.884000 5.709000
H  1.0  2.536000  -3.431000 4.269000
O  8.0  1.247000  5.613000  2.035000
H  1.0  1.230000  4.648000  1.767000
H  1.0  0.885000  5.716000  2.961000
O  8.0  -5.327000 -0.184000 -3.027000
H  1.0  -4.328000 -0.248000 -3.024000
H  1.0  -5.714000 -0.836000 -2.376000
O  8.0  2.790000  -1.592000 -3.906000
H  1.0  3.551000  -1.144000 -3.434000
H  1.0  3.135000  -2.135000 -4.671000
O  8.0  -2.696000 -5.437000 -3.458000
H  1.0  -2.642000 -5.681000 -2.488000
H  1.0  -3.585000 -5.705000 -3.828000
O  8.0  5.623000  5.192000  4.396000
H  1.0  5.759000  4.494000  5.101000
H  1.0  4.806000  5.729000  4.600000
O  8.0  3.242000  -3.737000 1.308000
H  1.0  2.768000  -3.323000 2.086000
H  1.0  2.620000  -3.811000 0.529000
O  8.0  -4.813000 -3.046000 1.838000
H  1.0  -5.421000 -2.252000 1.786000
H  1.0  -3.860000 -2.748000 1.838000
O  8.0  2.868000  -5.704000 -5.024000
H  1.0  3.181000  -5.040000 -5.704000
H  1.0  3.269000  -5.496000 -4.133000
O  8.0  5.596000  -0.734000 -1.867000
H  1.0  5.728000  0.232000  -1.639000
H  1.0  5.705000  -0.870000 -2.851000
O  8.0  3.161000  0.292000  -5.220000
H  1.0  3.913000  0.728000  -5.717000
H  1.0  2.614000  0.985000  -4.753000
O  8.0  -3.262000 3.139000  1.426000
H  1.0  -4.191000 2.851000  1.191000
H  1.0  -2.643000 2.950000  0.665000
O  8.0  -2.613000 -2.288000 -3.602000
H  1.0  -2.189000 -3.195000 -3.609000
H  1.0  -3.043000 -2.119000 -2.716000
O  8.0  -0.786000 2.510000  2.539000
H  1.0  -0.464000 3.048000  1.759000
H  1.0  -0.311000 2.795000  3.371000
O  8.0  1.276000  0.818000  -1.816000
H  1.0  2.099000  0.385000  -1.444000
H  1.0  1.457000  1.162000  -2.736000
O  8.0  -5.141000 -2.668000 4.412000
H  1.0  -5.702000 -2.266000 5.137000
H  1.0  -5.704000 -3.252000 3.829000
O  8.0  -3.707000 -3.735000 -5.753000
H  1.0  -2.969000 -4.329000 -5.427000
H  1.0  -3.488000 -2.780000 -5.559000
O  8.0  5.486000  2.503000  -4.822000
H  1.0  4.498000  2.572000  -4.675000
H  1.0  5.670000  2.052000  -5.695000
O  8.0  0.136000  -3.367000 -1.406000
H  1.0  0.843000  -4.056000 -1.570000
H  1.0  -0.648000 -3.533000 -2.002000
O  8.0  0.519000  0.344000  -4.549000
H  1.0  0.530000  0.837000  -5.420000
H  1.0  1.014000  -0.520000 -4.640000
O  8.0  5.148000  -3.262000 5.307000
H  1.0  5.427000  -2.383000 5.695000
H  1.0  5.701000  -3.998000 5.696000
O  8.0  -2.129000 -1.741000 4.904000
H  1.0  -1.937000 -0.873000 4.444000
H  1.0  -1.567000 -1.824000 5.726000
O  8.0  -5.323000 -4.164000 -1.748000
H  1.0  -5.347000 -5.141000 -1.965000
H  1.0  -5.765000 -3.999000 -0.867000
O  8.0  -3.109000 -4.559000 -0.655000
H  1.0  -3.050000 -3.844000 -1.353000
H  1.0  -3.399000 -4.163000 0.216000
O  8.0  5.510000  -1.440000 -4.966000
H  1.0  5.688000  -2.423000 -4.904000
H  1.0  4.865000  -1.255000 -5.707000
O  8.0  -2.831000 1.853000  -1.230000
H  1.0  -3.243000 1.015000  -1.590000
H  1.0  -1.996000 2.067000  -1.735000
O  8.0  -5.396000 3.797000  -2.908000
H  1.0  -5.024000 4.352000  -3.654000
H  1.0  -4.673000 3.238000  -2.505000
O  8.0  -0.070000 2.794000  5.738000
H  1.0  0.808000  2.808000  5.256000
H  1.0  -0.521000 3.682000  5.652000
O  8.0  2.493000  3.173000  -5.733000
H  1.0  2.471000  4.133000  -5.453000
H  1.0  1.600000  2.752000  -5.578000
O  8.0  2.769000  -3.975000 -2.630000
H  1.0  3.542000  -3.413000 -2.929000
H  1.0  3.069000  -4.628000 -1.936000
O  8.0  5.539000  3.024000  -1.735000
H  1.0  5.750000  2.345000  -1.031000
H  1.0  5.670000  2.628000  -2.643000
O  8.0  -1.172000 -1.638000 -5.132000
H  1.0  -0.858000 -0.899000 -5.730000
H  1.0  -1.313000 -2.471000 -5.665000
 $END
